************************************************************************
file with basedata            : md381_.bas
initial value random generator: 1878313303
************************************************************************
projects                      :  1
jobs (incl. supersource/sink ):  22
horizon                       :  165
RESOURCES
  - renewable                 :  2   R
  - nonrenewable              :  2   N
  - doubly constrained        :  0   D
************************************************************************
PROJECT INFORMATION:
pronr.  #jobs rel.date duedate tardcost  MPM-Time
    1     20      0       25        9       25
************************************************************************
PRECEDENCE RELATIONS:
jobnr.    #modes  #successors   successors
   1        1          3           2   3   4
   2        3          3          10  13  17
   3        3          1           7
   4        3          3           5   6   8
   5        3          3          13  15  19
   6        3          2           7  20
   7        3          2          12  17
   8        3          3           9  11  16
   9        3          2          15  18
  10        3          2          14  16
  11        3          3          13  14  18
  12        3          1          16
  13        3          1          20
  14        3          2          15  21
  15        3          1          20
  16        3          2          19  21
  17        3          2          18  21
  18        3          1          19
  19        3          1          22
  20        3          1          22
  21        3          1          22
  22        1          0        
************************************************************************
REQUESTS/DURATIONS:
jobnr. mode duration  R 1  R 2  N 1  N 2
------------------------------------------------------------------------
  1      1     0       0    0    0    0
  2      1     7       4    5    7    7
         2     7       4    5    8    6
         3     8       4    5    2    2
  3      1     2       8    6    7    9
         2     5       7    6    5    5
         3    10       5    3    5    5
  4      1     5       5    7    5    9
         2     6       5    7    3    8
         3     8       5    5    3    7
  5      1     7       6    7    9    2
         2     8       5    5    9    2
         3    10       2    2    8    2
  6      1     1       9    3    9    1
         2     7       7    3    5    1
         3     7       8    2    7    1
  7      1     1       7    7    3    6
         2     5       6    6    3    5
         3    10       3    4    3    3
  8      1     5      10   10    8    7
         2     5      10    9    9    8
         3     6      10    7    7    7
  9      1     1       7    7    4    9
         2     3       6    7    4    9
         3     5       6    2    2    8
 10      1     2      10    9    6    6
         2     4       9    7    5    5
         3     5       8    4    5    5
 11      1     2       5   10   10    6
         2     8       4   10    7    5
         3     9       2   10    2    1
 12      1     5       9    8    3    3
         2     9       8    8    3    1
         3     9       8    7    2    2
 13      1     3       9   10    9    9
         2     5       8    7    8    6
         3     9       6    2    8    3
 14      1     6      10    8    7    6
         2     6      10    9    7    5
         3     7       9    7    6    1
 15      1     2       6    8    4    3
         2     9       3    7    3    3
         3    10       1    6    3    3
 16      1     4       4    3    9    4
         2     5       4    3    6    3
         3     8       2    2    6    2
 17      1     1       9    5    3    4
         2     5       9    4    3    4
         3     9       9    3    3    1
 18      1     6       6    5    9    6
         2     8       6    4    7    5
         3     9       6    3    6    4
 19      1     2       7    8    9    6
         2     6       6    8    7    6
         3     9       6    7    2    5
 20      1     2       4    5   10    5
         2     6       3    5    8    4
         3     8       2    4    5    1
 21      1     7       9    7    8    9
         2     8       8    6    7    8
         3     9       7    3    6    8
 22      1     0       0    0    0    0
************************************************************************
RESOURCEAVAILABILITIES:
  R 1  R 2  N 1  N 2
   19   17  141  118
************************************************************************
MAXIMAL LAGS:
from  to  type  delay
    1   12   ES      0
    1    2   ES      0
    2   12   ES      0
    1    3   ES      0
    3   12   ES      0
    1    4   ES      0
    4   12   ES      0
    1    5   ES      0
    5   12   ES      0
    1    6   ES      0
    6   12   ES      0
    1    7   ES      0
    7   12   ES      0
    1    8   ES      0
    8   12   ES      0
    1    9   ES      0
    9   12   ES      0
    1   10   ES      0
   10   12   ES      0
    1   11   ES      0
   11   12   ES      0
    1   12   ES      0
    2   10   SS     -4
    2   10   SE     -1
    2   10   ES     12
    2   10   EE      5
    2   13   SS      7
    2   13   SE     -5
    2   13   ES     11
    2   13   EE      5
    2   17   SS     -2
    2   17   SE     -5
    2   17   ES      8
    2   17   EE     -5
    3    7   SS     -2
    3    7   SE      4
    3    7   ES      9
    3    7   EE     -3
    4    5   SS      6
    4    5   SE      7
    4    5   ES      8
    4    5   EE      7
    4    6   SS      9
    4    6   SE      7
    4    6   ES     12
    4    6   EE    -10
    4    8   SS      1
    4    8   SE      6
    4    8   ES     -1
    4    8   EE     -5
    5   13   SS     -1
    5   13   SE     12
    5   13   ES      8
    5   13   EE      8
    5   15   SS      7
    5   15   SE     10
    5   15   ES     -2
    5   15   EE     -8
    5   19   SS     -8
    5   19   SE      5
    5   19   ES     10
    5   19   EE      3
    6    7   SS      8
    6    7   SE      9
    6    7   ES     -2
    6    7   EE    -10
    6   20   SS     -8
    6   20   SE    -12
    6   20   ES      6
    6   20   EE     10
    7   17   SS    -11
    7   17   SE    -10
    7   17   ES      5
    7   17   EE    -10
    8    9   SS      3
    8    9   SE      9
    8    9   ES     -3
    8    9   EE     12
    8   11   SS      6
    8   11   SE      2
    8   11   ES     -5
    8   11   EE     12
    8   16   SS    -10
    8   16   SE     -9
    8   16   ES    -10
    8   16   EE     -3
    9   15   SS      7
    9   15   SE      1
    9   15   ES     -5
    9   15   EE     -6
    9   18   SS      1
    9   18   SE    -12
    9   18   ES      6
    9   18   EE      5
   10   14   SS      7
   10   14   SE     10
   10   14   ES     -9
   10   14   EE    -11
   10   16   SS     -2
   10   16   SE      9
   10   16   ES    -12
   10   16   EE     -3
   11   13   SS      9
   11   13   SE     12
   11   13   ES     -2
   11   13   EE      7
   11   14   SS     12
   11   14   SE      0
   11   14   ES      8
   11   14   EE     -9
   11   18   SS      7
   11   18   SE      8
   11   18   ES      2
   11   18   EE      8
   12   16   SS     -4
   12   16   SE    -11
   12   16   ES    -12
   12   16   EE     10
   13   20   SS     -1
   13   20   SE      7
   13   20   ES      3
   13   20   EE     -1
   14   15   SS     12
   14   15   SE      4
   14   15   ES     -6
   14   15   EE     -4
   14   21   SS      9
   14   21   SE     -3
   14   21   ES     -1
   14   21   EE      7
   15   20   SS     11
   15   20   SE     -4
   15   20   ES     -7
   15   20   EE    -10
   16   19   SS    -12
   16   19   SE     10
   16   19   ES     -3
   16   19   EE     -7
   16   21   SS    -12
   16   21   SE      9
   16   21   ES      4
   16   21   EE     -3
   17   18   SS    -10
   17   18   SE      4
   17   18   ES     -7
   17   18   EE      5
   17   21   SS      8
   17   21   SE      1
   17   21   ES     -2
   17   21   EE     -4
   18   19   SS      6
   18   19   SE    -11
   18   19   ES      2
   18   19   EE      5
   19   22   SS      2
   19   22   SE     -7
   19   22   ES     -2
   19   22   EE     -2
   20   22   SS    -11
   20   22   SE     10
   20   22   ES     -1
   20   22   EE     -3
   21   22   SS     -9
   21   22   SE     -2
   21   22   ES     -9
   21   22   EE      7
************************************************************************
